c Generated encoding file
p cnf 20 70
-1 -2 3 0
-4 -5 3 0
-6 -7 3 0
-8 -3 2 0
-9 -5 2 0
-10 -7 2 0
-11 -3 5 0
-12 -2 5 0
-13 -7 5 0
-14 -3 7 0
-15 -2 7 0
-16 -5 7 0
-17 -8 18 0
-19 -11 18 0
-20 -14 18 0
-2 -18 8 0
-9 -11 8 0
-10 -14 8 0
-5 -18 11 0
-12 -8 11 0
-13 -14 11 0
-7 -18 14 0
-15 -8 14 0
-16 -11 14 0
-18 -1 17 0
-19 -12 17 0
-20 -15 17 0
-3 -17 1 0
-4 -12 1 0
-6 -15 1 0
-5 -17 12 0
-11 -1 12 0
-13 -15 12 0
-7 -17 15 0
-14 -1 15 0
-16 -12 15 0
-18 -4 19 0
-17 -9 19 0
-20 -16 19 0
-3 -19 4 0
-1 -9 4 0
-6 -16 4 0
-2 -19 9 0
-8 -4 9 0
-10 -16 9 0
-7 -19 16 0
-14 -4 16 0
-15 -9 16 0
-18 -6 20 0
-17 -10 20 0
-19 -13 20 0
-3 -20 6 0
-1 -10 6 0
-4 -13 6 0
-2 -20 10 0
-8 -6 10 0
-9 -13 10 0
-5 -20 13 0
-11 -6 13 0
-12 -10 13 0
18 3 0
-18 -3 0
17 2 0
-17 -2 0
19 5 0
-19 -5 0
20 7 0
-20 -7 0
1 8 0
-1 -8 0
4 11 0
-4 -11 0
6 14 0
-6 -14 0
9 12 0
-9 -12 0
10 15 0
-10 -15 0
13 16 0
-13 -16 0
